(declare-fun b_ack!1454 () (_ BitVec 64))
(declare-fun a_ack!1455 () (_ BitVec 64))
(declare-fun FPCHECK_FMUL_OVERFLOW ((_ FloatingPoint 11 53) (_ BitVec 64)) Bool)
(assert (fp.eq ((_ to_fp 11 53) b_ack!1454) ((_ to_fp 11 53) #x0000000000000000)))
(assert (not (fp.geq ((_ to_fp 11 53) a_ack!1455) ((_ to_fp 11 53) #x3ff0000000000000))))
(assert (not (fp.geq ((_ to_fp 11 53) a_ack!1455) ((_ to_fp 11 53) #x0000000000000000))))
(assert (not (fp.gt (fp.sub roundNearestTiesToEven
                    ((_ to_fp 11 53) #x8000000000000000)
                    ((_ to_fp 11 53) a_ack!1455))
            ((_ to_fp 11 53) #x4000000000000000))))
(assert (not (fp.gt (fp.sub roundNearestTiesToEven
                    ((_ to_fp 11 53) #x8000000000000000)
                    ((_ to_fp 11 53) a_ack!1455))
            ((_ to_fp 11 53) #x3ff028f5c28f5c29))))
(assert (not (fp.gt (fp.sub roundNearestTiesToEven
                    ((_ to_fp 11 53) #x8000000000000000)
                    ((_ to_fp 11 53) a_ack!1455))
            ((_ to_fp 11 53) #x3ff0000000000000))))
(assert (not (fp.eq (fp.sub roundNearestTiesToEven
                    ((_ to_fp 11 53) #x8000000000000000)
                    ((_ to_fp 11 53) a_ack!1455))
            ((_ to_fp 11 53) #x3ff0000000000000))))
(assert (not (fp.gt (fp.sub roundNearestTiesToEven
                    ((_ to_fp 11 53) #x8000000000000000)
                    ((_ to_fp 11 53) a_ack!1455))
            ((_ to_fp 11 53) #x3fe0000000000000))))
(assert (not (fp.gt (fp.sub roundNearestTiesToEven
                    ((_ to_fp 11 53) #x8000000000000000)
                    ((_ to_fp 11 53) a_ack!1455))
            ((_ to_fp 11 53) #x3fd0000000000000))))
(assert (fp.gt (fp.sub roundNearestTiesToEven
               ((_ to_fp 11 53) #x8000000000000000)
               ((_ to_fp 11 53) a_ack!1455))
       ((_ to_fp 11 53) #x0000000000000000)))
(assert (let ((a!1 (fp.mul roundNearestTiesToEven
                   (fp.mul roundNearestTiesToEven
                           (fp.sub roundNearestTiesToEven
                                   ((_ to_fp 11 53) #x8000000000000000)
                                   ((_ to_fp 11 53) a_ack!1455))
                           (fp.sub roundNearestTiesToEven
                                   ((_ to_fp 11 53) #x8000000000000000)
                                   ((_ to_fp 11 53) a_ack!1455)))
                   ((_ to_fp 11 53) #x3fd0000000000000))))
(let ((a!2 (fp.div roundNearestTiesToEven
                   a!1
                   (fp.add roundNearestTiesToEven
                           (fp.sub roundNearestTiesToEven
                                   ((_ to_fp 11 53) #x8000000000000000)
                                   ((_ to_fp 11 53) a_ack!1455))
                           a!1))))
  (not (fp.lt (fp.abs a!2) ((_ to_fp 11 53) #x3cb0000000000000))))))
(assert (let ((a!1 (fp.mul roundNearestTiesToEven
                   (fp.mul roundNearestTiesToEven
                           (fp.sub roundNearestTiesToEven
                                   ((_ to_fp 11 53) #x8000000000000000)
                                   ((_ to_fp 11 53) a_ack!1455))
                           (fp.sub roundNearestTiesToEven
                                   ((_ to_fp 11 53) #x8000000000000000)
                                   ((_ to_fp 11 53) a_ack!1455)))
                   ((_ to_fp 11 53) #x3fd0000000000000))))
  (FPCHECK_FMUL_OVERFLOW
    (fp.mul roundNearestTiesToEven
            a!1
            (fp.sub roundNearestTiesToEven
                    ((_ to_fp 11 53) #x8000000000000000)
                    ((_ to_fp 11 53) a_ack!1455)))
    #x3fdc71c71c71c71c)))

(check-sat)
(exit)
